c E(5,3) E(3,5) E(4,3) E(3,4) E(3,1) E(1,3) E(0,3) E(3,0) E(2,3) E(3,2) E(5,4) E(4,5) E(1,5) E(5,1) E(0,5) E(5,0) E(5,2) E(2,5) E(4,1) E(1,4) E(4,0) E(0,4) E(2,4) E(4,2) E(0,1) E(1,0) E(2,1) E(1,2) E(2,0) E(0,2)
c 1 2 3 4 5 6 7 8 9 10 11 12 13 14 15 16 17 18 19 20 21 22 23 24 25 26 27 28 29 30
p cnf 30 66
25 -25 0
25 -26 0
30 -30 0
30 -29 0
7 -7 0
7 -8 0
22 -22 0
22 -21 0
15 -15 0
15 -16 0
26 -25 0
26 -26 0
28 -28 0
28 -27 0
6 -6 0
6 -5 0
20 -20 0
20 -19 0
13 -13 0
13 -14 0
29 -30 0
29 -29 0
27 -28 0
27 -27 0
9 -9 0
9 -10 0
23 -23 0
23 -24 0
18 -18 0
18 -17 0
8 -7 0
8 -8 0
5 -6 0
5 -5 0
10 -9 0
10 -10 0
4 -4 0
4 -3 0
2 -2 0
2 -1 0
21 -22 0
21 -21 0
19 -20 0
19 -19 0
24 -23 0
24 -24 0
3 -4 0
3 -3 0
12 -12 0
12 -11 0
16 -15 0
16 -16 0
14 -13 0
14 -14 0
17 -18 0
17 -17 0
1 -2 0
1 -1 0
11 -12 0
11 -11 0
25 30 7 22 15 0
26 28 6 20 13 0
29 27 9 23 18 0
8 5 10 4 2 0
21 19 24 3 12 0
16 14 17 1 11 0
